
Gurobi 6.0.4 (win64) logging started 06/21/15 19:09:40

Read LP format model from file C:\MT\repository\VRPTWMS\instances\mip\fuel\N6-C_DV100-C_SV30_F6_1_No_1.lp
Reading time = 0.00 seconds
(null): 253 rows, 134 columns, 987 nonzeros
Optimize a model with 253 rows, 134 columns and 987 nonzeros
Model has 252 quadratic constraints
Coefficient statistics:
  Matrix range    [1e+00, 1e+06]
  Objective range [4e+04, 1e+07]
  Bounds range    [1e+00, 1e+06]
  RHS range       [1e+00, 1e+06]
Presolve removed 25 rows and 11 columns
Presolve time: 0.19s
Presolved: 730 rows, 389 columns, 3350 nonzeros
Variable types: 236 continuous, 153 integer (120 binary)
Found heuristic solution: objective 6.310280e+07

Root relaxation: objective 1.182513e+06, 69 iterations, 0.00 seconds

    Nodes    |    Current Node    |     Objective Bounds      |     Work
 Expl Unexpl |  Obj  Depth IntInf | Incumbent    BestBd   Gap | It/Node Time

     0     0 1182512.84    0   20 6.3103e+07 1182512.84  98.1%     -    0s
     0     0 2688208.61    0   32 6.3103e+07 2688208.61  95.7%     -    0s
H    0     0                    5.303770e+07 2688208.61  94.9%     -    0s
H    0     0                    3.223110e+07 2688208.61  91.7%     -    0s
     0     0 3521927.71    0   29 3.2231e+07 3521927.71  89.1%     -    0s
     0     0 4316325.00    0   17 3.2231e+07 4316325.00  86.6%     -    0s
     0     0 4695440.00    0   25 3.2231e+07 4695440.00  85.4%     -    0s
     0     0 4783400.00    0   23 3.2231e+07 4783400.00  85.2%     -    0s
     0     0 4783400.00    0   25 3.2231e+07 4783400.00  85.2%     -    0s
H    0     0                    2.159190e+07 4783400.00  77.8%     -    0s
     0     0 4783400.00    0   18 2.1592e+07 4783400.00  77.8%     -    0s
     0     2 4783400.00    0   18 2.1592e+07 4783400.00  77.8%     -    0s
*   22     0              14    2.154830e+07 7749520.00  64.0%   5.5    0s
*   60     8               6    2.147120e+07 1.0065e+07  53.1%   7.7    0s

Cutting planes:
  Learned: 4
  Cover: 18
  Implied bound: 13
  Clique: 5
  MIR: 13
  GUB cover: 5

Explored 192 nodes (2621 simplex iterations) in 0.34 seconds
Thread count was 2 (of 4 available processors)

Optimal solution found (tolerance 1.00e-04)
Best objective 2.147120000000e+07, best bound 2.147120000000e+07, gap 0.0%
k_c1	1000000.0
k_c2	980000.0
k_c3	1000000.0
k_c4	870000.0
k_c5	960000.0
k_c6	960000.0
k_dN	-0.0
o_1	-0.0
o_2	-0.0
o_3	-0.0
o_4	-0.0
o_5	-0.0
o_6	-0.0
p_1	0.0
p_2	0.0
p_3	0.0
p_4	0.0
p_5	0.0
p_6	0.0
phi_c1	52889.0
phi_c2	29327.0
phi_c3	32082.999999999985
phi_c4	6690.0
phi_c5	17414.0
phi_c6	22604.0
phi_dN	-0.0
pi_c1	-0.0
pi_c2	-0.0
pi_c3	-0.0
pi_c4	-0.0
pi_c5	-0.0
pi_c6	-0.0
pi_dN	-0.0
tauD_c1	400000.0
tauD_c2	134625.0
tauD_c3	104325.0
tauD_c4	799925.0
tauD_c5	650000.0
tauD_c6	250000.0
tauD_d0	-0.0
tauD_dN	1000000.0
tauS_c1	8200.0
tauS_c2	76800.0
tauS_c3	82925.0
tauS_c4	-0.0
tauS_c5	-0.0
tauS_c6	57550.0
tauS_d0	-0.0
tauS_dN	-0.0
x_c1_c5	1.0
x_c2_c6	1.0
x_c3_c2	1.0
x_c4_dN	1.0
x_c5_c4	1.0
x_c6_dN	1.0
x_d0_c1	1.0
x_d0_c3	1.0
